1912960
25,65,45,54,33,42,66,63,6,37,20,62,15,58,49,27,30,21,13,51,32,9,17,56,43,61,38,34,50,36,52,67,16,44,26,7,35,14,8,57,1,47,3,19,12,64,46,53,0,41,23,60,2,39,4,55,31,11,24,5,40,29,28,59,48,18,22,10